nK = 2266;
nT = 8;
nI = 21;
L = 35;
TT = 462;
np = 1;
nc = 3;
b = [28, 41, 27, 66, 55, 53, 63, 60, 50, 45, 56, 34, 48, 62, 32, 39, 59, 63, 70, 34, 41];
d = [67, 116, 123, 118, 109, 124, 105, 140, 141, 126, 121, 67, 78, 115, 116, 74, 133, 139, 120, 101, 87];
m = [2, 2.3, 2.3, 1.5, 2.4, 1.3, 2.1, 2.3, 1, 1.4, 1.4, 1.9, 1.5, 2.4, 2.3, 1.9, 1.7, 2.2, 1.5, 1.4, 2];
pt = [0.34, 0.26, 0.26, 0.23, 0.26, 0.21, 0.22, 0.2];
st = [14.96, 13.26, 15.6, 11.5, 14.82, 9.45, 12.54, 8.8];
arc = {<1, 0, 1, 1, 0, 0, 0, [1, 1, 1, 1, 1, 1, 1, 1]>, <2, 1, 2, 1, 0, 0, 0, [1, 1, 1, 1, 1, 1, 1, 1]>, <3, 2, 3, 1, 0, 0, 0, [1, 1, 1, 1, 1, 1, 1, 1]>, <4, 3, 4, 1, 0, 0, 0, [1, 1, 1, 1, 1, 1, 1, 1]>, <5, 4, 5, 1, 0, 0, 0, [1, 1, 1, 1, 1, 1, 1, 1]>, <6, 5, 6, 1, 0, 0, 0, [1, 1, 1, 1, 1, 1, 1, 1]>, <7, 6, 7, 1, 0, 0, 0, [1, 1, 1, 1, 1, 1, 1, 1]>, <8, 7, 8, 1, 0, 0, 0, [1, 1, 1, 1, 1, 1, 1, 1]>, <9, 8, 9, 1, 0, 0, 0, [1, 1, 1, 1, 1, 1, 1, 1]>, <10, 9, 10, 1, 0, 0, 0, [1, 1, 1, 1, 1, 1, 1, 1]>, <11, 10, 11, 1, 0, 0, 0, [1, 1, 1, 1, 1, 1, 1, 1]>, <12, 11, 12, 1, 0, 0, 0, [1, 1, 1, 1, 1, 1, 1, 1]>, <13, 12, 13, 1, 0, 0, 0, [1, 1, 1, 1, 1, 1, 1, 1]>, <14, 13, 14, 1, 0, 0, 0, [1, 1, 1, 1, 1, 1, 1, 1]>, <15, 14, 15, 1, 0, 0, 0, [1, 1, 1, 1, 1, 1, 1, 1]>, <16, 15, 16, 1, 0, 0, 0, [1, 1, 1, 1, 1, 1, 1, 1]>, <17, 16, 17, 1, 0, 0, 0, [1, 1, 1, 1, 1, 1, 1, 1]>, <18, 17, 18, 1, 0, 0, 0, [1, 1, 1, 1, 1, 1, 1, 1]>, <19, 18, 19, 1, 0, 0, 0, [1, 1, 1, 1, 1, 1, 1, 1]>, <20, 19, 20, 1, 0, 0, 0, [1, 1, 1, 1, 1, 1, 1, 1]>, <21, 20, 21, 1, 0, 0, 0, [1, 1, 1, 1, 1, 1, 1, 1]>, <22, 21, 22, 1, 0, 0, 0, [1, 1, 1, 1, 1, 1, 1, 1]>, <23, 22, 23, 1, 0, 0, 0, [1, 1, 1, 1, 1, 1, 1, 1]>, <24, 23, 24, 1, 0, 0, 0, [1, 1, 1, 1, 1, 1, 1, 1]>, <25, 24, 25, 1, 0, 0, 0, [1, 1, 1, 1, 1, 1, 1, 1]>, <26, 25, 26, 1, 0, 0, 0, [1, 1, 1, 1, 1, 1, 1, 1]>, <27, 26, 27, 1, 0, 0, 0, [1, 1, 1, 1, 1, 1, 1, 1]>, <28, 27, 28, 1, 0, 0, 0, [1, 1, 1, 1, 1, 1, 1, 1]>, <29, 28, 29, 1, 0, 0, 0, [1, 1, 1, 1, 1, 1, 1, 1]>, <30, 29, 30, 1, 0, 0, 0, [1, 1, 1, 1, 1, 1, 1, 1]>, <31, 30, 31, 1, 0, 0, 0, [1, 1, 1, 1, 1, 1, 1, 1]>, <32, 31, 32, 1, 0, 0, 0, [1, 1, 1, 1, 1, 1, 1, 1]>, <33, 32, 33, 1, 0, 0, 0, [1, 1, 1, 1, 1, 1, 1, 1]>, <34, 33, 34, 1, 0, 0, 0, [1, 1, 1, 1, 1, 1, 1, 1]>, <35, 34, 35, 1, 0, 0, 0, [1, 1, 1, 1, 1, 1, 1, 1]>, <36, 3, 17, 14, 1, 0, 1, [0, 1, 1, 0, 0, 0, 0, 0]>, <37, 4, 18, 14, 1, 0, 1, [0, 1, 1, 0, 0, 0, 0, 0]>, <38, 5, 19, 14, 1, 0, 1, [0, 1, 1, 0, 0, 0, 0, 0]>, <39, 6, 20, 14, 1, 0, 1, [0, 1, 1, 0, 0, 0, 0, 0]>, <40, 12, 26, 14, 1, 0, 1, [0, 1, 1, 0, 0, 0, 0, 0]>, <41, 13, 27, 14, 1, 0, 1, [0, 1, 1, 0, 0, 0, 0, 0]>, <42, 14, 28, 14, 1, 0, 1, [0, 1, 1, 0, 0, 0, 0, 0]>, <43, 15, 29, 14, 1, 0, 1, [0, 1, 1, 0, 0, 0, 0, 0]>, <44, 17, 31, 14, 1, 0, 1, [0, 1, 1, 0, 0, 0, 0, 0]>, <45, 18, 32, 14, 1, 0, 1, [0, 1, 1, 0, 0, 0, 0, 0]>, <46, 19, 33, 14, 1, 0, 1, [0, 1, 1, 0, 0, 0, 0, 0]>, <47, 20, 34, 14, 1, 0, 1, [0, 1, 1, 0, 0, 0, 0, 0]>, <48, 21, 35, 14, 1, 0, 1, [0, 1, 1, 0, 0, 0, 0, 0]>, <49, 4, 17, 13, 2, 0, 0, [0, 1, 1, 0, 0, 0, 0, 0]>, <50, 5, 18, 13, 2, 0, 0, [0, 1, 1, 0, 0, 0, 0, 0]>, <51, 6, 19, 13, 2, 0, 0, [0, 1, 1, 0, 0, 0, 0, 0]>, <52, 13, 26, 13, 2, 0, 0, [0, 1, 1, 0, 0, 0, 0, 0]>, <53, 14, 27, 13, 2, 0, 0, [0, 1, 1, 0, 0, 0, 0, 0]>, <54, 15, 28, 13, 2, 0, 0, [0, 1, 1, 0, 0, 0, 0, 0]>, <55, 18, 31, 13, 2, 0, 0, [0, 1, 1, 0, 0, 0, 0, 0]>, <56, 19, 32, 13, 2, 0, 0, [0, 1, 1, 0, 0, 0, 0, 0]>, <57, 20, 33, 13, 2, 0, 0, [0, 1, 1, 0, 0, 0, 0, 0]>, <58, 21, 34, 13, 2, 0, 0, [0, 1, 1, 0, 0, 0, 0, 0]>, <59, 22, 35, 13, 2, 0, 0, [0, 1, 1, 0, 0, 0, 0, 0]>, <60, 0, 17, 17, 3, 0, 0, [0, 0, 0, 1, 1, 0, 0, 0]>, <61, 1, 18, 17, 3, 0, 0, [0, 0, 0, 1, 1, 0, 0, 0]>, <62, 2, 19, 17, 3, 0, 0, [0, 0, 0, 1, 1, 0, 0, 0]>, <63, 3, 20, 17, 3, 0, 0, [0, 0, 0, 1, 1, 0, 0, 0]>, <64, 4, 21, 17, 3, 0, 0, [0, 0, 0, 1, 1, 0, 0, 0]>, <65, 5, 22, 17, 3, 0, 0, [0, 0, 0, 1, 1, 0, 0, 0]>, <66, 6, 23, 17, 3, 0, 0, [0, 0, 0, 1, 1, 0, 0, 0]>, <67, 9, 26, 17, 3, 0, 0, [0, 0, 0, 1, 1, 0, 0, 0]>, <68, 10, 27, 17, 3, 0, 0, [0, 0, 0, 1, 1, 0, 0, 0]>, <69, 11, 28, 17, 3, 0, 0, [0, 0, 0, 1, 1, 0, 0, 0]>, <70, 12, 29, 17, 3, 0, 0, [0, 0, 0, 1, 1, 0, 0, 0]>, <71, 13, 30, 17, 3, 0, 0, [0, 0, 0, 1, 1, 0, 0, 0]>, <72, 14, 31, 17, 3, 0, 0, [0, 0, 0, 1, 1, 0, 0, 0]>, <73, 15, 32, 17, 3, 0, 0, [0, 0, 0, 1, 1, 0, 0, 0]>, <74, 16, 33, 17, 3, 0, 0, [0, 0, 0, 1, 1, 0, 0, 0]>, <75, 17, 34, 17, 3, 0, 0, [0, 0, 0, 1, 1, 0, 0, 0]>, <76, 18, 35, 17, 3, 0, 0, [0, 0, 0, 1, 1, 0, 0, 0]>, <77, 2, 17, 15, 4, 0, 0, [1, 0, 0, 0, 0, 0, 0, 1]>, <78, 3, 18, 15, 4, 0, 0, [1, 0, 0, 0, 0, 0, 0, 1]>, <79, 4, 19, 15, 4, 0, 0, [1, 0, 0, 0, 0, 0, 0, 1]>, <80, 5, 20, 15, 4, 0, 0, [1, 0, 0, 0, 0, 0, 0, 1]>, <81, 6, 21, 15, 4, 0, 0, [1, 0, 0, 0, 0, 0, 0, 1]>, <82, 11, 26, 15, 4, 0, 0, [1, 0, 0, 0, 0, 0, 0, 1]>, <83, 12, 27, 15, 4, 0, 0, [1, 0, 0, 0, 0, 0, 0, 1]>, <84, 13, 28, 15, 4, 0, 0, [1, 0, 0, 0, 0, 0, 0, 1]>, <85, 14, 29, 15, 4, 0, 0, [1, 0, 0, 0, 0, 0, 0, 1]>, <86, 15, 30, 15, 4, 0, 0, [1, 0, 0, 0, 0, 0, 0, 1]>, <87, 16, 31, 15, 4, 0, 0, [1, 0, 0, 0, 0, 0, 0, 1]>, <88, 17, 32, 15, 4, 0, 0, [1, 0, 0, 0, 0, 0, 0, 1]>, <89, 18, 33, 15, 4, 0, 0, [1, 0, 0, 0, 0, 0, 0, 1]>, <90, 19, 34, 15, 4, 0, 0, [1, 0, 0, 0, 0, 0, 0, 1]>, <91, 20, 35, 15, 4, 0, 0, [1, 0, 0, 0, 0, 0, 0, 1]>, <92, 3, 17, 14, 5, 0, 0, [0, 0, 0, 0, 0, 1, 1, 0]>, <93, 4, 18, 14, 5, 0, 0, [0, 0, 0, 0, 0, 1, 1, 0]>, <94, 5, 19, 14, 5, 0, 0, [0, 0, 0, 0, 0, 1, 1, 0]>, <95, 6, 20, 14, 5, 0, 0, [0, 0, 0, 0, 0, 1, 1, 0]>, <96, 12, 26, 14, 5, 0, 0, [0, 0, 0, 0, 0, 1, 1, 0]>, <97, 13, 27, 14, 5, 0, 0, [0, 0, 0, 0, 0, 1, 1, 0]>, <98, 14, 28, 14, 5, 0, 0, [0, 0, 0, 0, 0, 1, 1, 0]>, <99, 15, 29, 14, 5, 0, 0, [0, 0, 0, 0, 0, 1, 1, 0]>, <100, 17, 31, 14, 5, 0, 0, [0, 0, 0, 0, 0, 1, 1, 0]>, <101, 18, 32, 14, 5, 0, 0, [0, 0, 0, 0, 0, 1, 1, 0]>, <102, 19, 33, 14, 5, 0, 0, [0, 0, 0, 0, 0, 1, 1, 0]>, <103, 20, 34, 14, 5, 0, 0, [0, 0, 0, 0, 0, 1, 1, 0]>, <104, 21, 35, 14, 5, 0, 0, [0, 0, 0, 0, 0, 1, 1, 0]>, <105, 1, 17, 16, 6, 0, 0, [1, 0, 0, 0, 0, 0, 0, 1]>, <106, 2, 18, 16, 6, 0, 0, [1, 0, 0, 0, 0, 0, 0, 1]>, <107, 3, 19, 16, 6, 0, 0, [1, 0, 0, 0, 0, 0, 0, 1]>, <108, 4, 20, 16, 6, 0, 0, [1, 0, 0, 0, 0, 0, 0, 1]>, <109, 5, 21, 16, 6, 0, 0, [1, 0, 0, 0, 0, 0, 0, 1]>, <110, 6, 22, 16, 6, 0, 0, [1, 0, 0, 0, 0, 0, 0, 1]>, <111, 10, 26, 16, 6, 0, 0, [1, 0, 0, 0, 0, 0, 0, 1]>, <112, 11, 27, 16, 6, 0, 0, [1, 0, 0, 0, 0, 0, 0, 1]>, <113, 12, 28, 16, 6, 0, 0, [1, 0, 0, 0, 0, 0, 0, 1]>, <114, 13, 29, 16, 6, 0, 0, [1, 0, 0, 0, 0, 0, 0, 1]>, <115, 14, 30, 16, 6, 0, 0, [1, 0, 0, 0, 0, 0, 0, 1]>, <116, 15, 31, 16, 6, 0, 0, [1, 0, 0, 0, 0, 0, 0, 1]>, <117, 16, 32, 16, 6, 0, 0, [1, 0, 0, 0, 0, 0, 0, 1]>, <118, 17, 33, 16, 6, 0, 0, [1, 0, 0, 0, 0, 0, 0, 1]>, <119, 18, 34, 16, 6, 0, 0, [1, 0, 0, 0, 0, 0, 0, 1]>, <120, 19, 35, 16, 6, 0, 0, [1, 0, 0, 0, 0, 0, 0, 1]>, <121, 1, 17, 16, 7, 1, 0, [1, 1, 0, 0, 0, 0, 0, 0]>, <122, 2, 18, 16, 7, 1, 0, [1, 1, 0, 0, 0, 0, 0, 0]>, <123, 3, 19, 16, 7, 1, 0, [1, 1, 0, 0, 0, 0, 0, 0]>, <124, 4, 20, 16, 7, 1, 0, [1, 1, 0, 0, 0, 0, 0, 0]>, <125, 5, 21, 16, 7, 1, 0, [1, 1, 0, 0, 0, 0, 0, 0]>, <126, 6, 22, 16, 7, 1, 0, [1, 1, 0, 0, 0, 0, 0, 0]>, <127, 10, 26, 16, 7, 1, 0, [1, 1, 0, 0, 0, 0, 0, 0]>, <128, 11, 27, 16, 7, 1, 0, [1, 1, 0, 0, 0, 0, 0, 0]>, <129, 12, 28, 16, 7, 1, 0, [1, 1, 0, 0, 0, 0, 0, 0]>, <130, 13, 29, 16, 7, 1, 0, [1, 1, 0, 0, 0, 0, 0, 0]>, <131, 14, 30, 16, 7, 1, 0, [1, 1, 0, 0, 0, 0, 0, 0]>, <132, 15, 31, 16, 7, 1, 0, [1, 1, 0, 0, 0, 0, 0, 0]>, <133, 16, 32, 16, 7, 1, 0, [1, 1, 0, 0, 0, 0, 0, 0]>, <134, 17, 33, 16, 7, 1, 0, [1, 1, 0, 0, 0, 0, 0, 0]>, <135, 18, 34, 16, 7, 1, 0, [1, 1, 0, 0, 0, 0, 0, 0]>, <136, 19, 35, 16, 7, 1, 0, [1, 1, 0, 0, 0, 0, 0, 0]>, <137, 0, 18, 18, 8, 1, 0, [1, 0, 0, 0, 0, 0, 0, 1]>, <138, 1, 19, 18, 8, 1, 0, [1, 0, 0, 0, 0, 0, 0, 1]>, <139, 2, 20, 18, 8, 1, 0, [1, 0, 0, 0, 0, 0, 0, 1]>, <140, 3, 21, 18, 8, 1, 0, [1, 0, 0, 0, 0, 0, 0, 1]>, <141, 4, 22, 18, 8, 1, 0, [1, 0, 0, 0, 0, 0, 0, 1]>, <142, 5, 23, 18, 8, 1, 0, [1, 0, 0, 0, 0, 0, 0, 1]>, <143, 6, 24, 18, 8, 1, 0, [1, 0, 0, 0, 0, 0, 0, 1]>, <144, 8, 26, 18, 8, 1, 0, [1, 0, 0, 0, 0, 0, 0, 1]>, <145, 9, 27, 18, 8, 1, 0, [1, 0, 0, 0, 0, 0, 0, 1]>, <146, 10, 28, 18, 8, 1, 0, [1, 0, 0, 0, 0, 0, 0, 1]>, <147, 11, 29, 18, 8, 1, 0, [1, 0, 0, 0, 0, 0, 0, 1]>, <148, 12, 30, 18, 8, 1, 0, [1, 0, 0, 0, 0, 0, 0, 1]>, <149, 13, 31, 18, 8, 1, 0, [1, 0, 0, 0, 0, 0, 0, 1]>, <150, 14, 32, 18, 8, 1, 0, [1, 0, 0, 0, 0, 0, 0, 1]>, <151, 15, 33, 18, 8, 1, 0, [1, 0, 0, 0, 0, 0, 0, 1]>, <152, 16, 34, 18, 8, 1, 0, [1, 0, 0, 0, 0, 0, 0, 1]>, <153, 17, 35, 18, 8, 1, 0, [1, 0, 0, 0, 0, 0, 0, 1]>, <154, 0, 19, 19, 9, 0, 0, [1, 0, 0, 0, 0, 0, 0, 1]>, <155, 1, 20, 19, 9, 0, 0, [1, 0, 0, 0, 0, 0, 0, 1]>, <156, 2, 21, 19, 9, 0, 0, [1, 0, 0, 0, 0, 0, 0, 1]>, <157, 3, 22, 19, 9, 0, 0, [1, 0, 0, 0, 0, 0, 0, 1]>, <158, 4, 23, 19, 9, 0, 0, [1, 0, 0, 0, 0, 0, 0, 1]>, <159, 5, 24, 19, 9, 0, 0, [1, 0, 0, 0, 0, 0, 0, 1]>, <160, 6, 25, 19, 9, 0, 0, [1, 0, 0, 0, 0, 0, 0, 1]>, <161, 7, 26, 19, 9, 0, 0, [1, 0, 0, 0, 0, 0, 0, 1]>, <162, 8, 27, 19, 9, 0, 0, [1, 0, 0, 0, 0, 0, 0, 1]>, <163, 9, 28, 19, 9, 0, 0, [1, 0, 0, 0, 0, 0, 0, 1]>, <164, 10, 29, 19, 9, 0, 0, [1, 0, 0, 0, 0, 0, 0, 1]>, <165, 11, 30, 19, 9, 0, 0, [1, 0, 0, 0, 0, 0, 0, 1]>, <166, 12, 31, 19, 9, 0, 0, [1, 0, 0, 0, 0, 0, 0, 1]>, <167, 13, 32, 19, 9, 0, 0, [1, 0, 0, 0, 0, 0, 0, 1]>, <168, 14, 33, 19, 9, 0, 0, [1, 0, 0, 0, 0, 0, 0, 1]>, <169, 15, 34, 19, 9, 0, 0, [1, 0, 0, 0, 0, 0, 0, 1]>, <170, 16, 35, 19, 9, 0, 0, [1, 0, 0, 0, 0, 0, 0, 1]>, <171, 1, 17, 16, 10, 0, 1, [1, 1, 0, 0, 0, 0, 0, 0]>, <172, 2, 18, 16, 10, 0, 1, [1, 1, 0, 0, 0, 0, 0, 0]>, <173, 3, 19, 16, 10, 0, 1, [1, 1, 0, 0, 0, 0, 0, 0]>, <174, 4, 20, 16, 10, 0, 1, [1, 1, 0, 0, 0, 0, 0, 0]>, <175, 5, 21, 16, 10, 0, 1, [1, 1, 0, 0, 0, 0, 0, 0]>, <176, 6, 22, 16, 10, 0, 1, [1, 1, 0, 0, 0, 0, 0, 0]>, <177, 10, 26, 16, 10, 0, 1, [1, 1, 0, 0, 0, 0, 0, 0]>, <178, 11, 27, 16, 10, 0, 1, [1, 1, 0, 0, 0, 0, 0, 0]>, <179, 12, 28, 16, 10, 0, 1, [1, 1, 0, 0, 0, 0, 0, 0]>, <180, 13, 29, 16, 10, 0, 1, [1, 1, 0, 0, 0, 0, 0, 0]>, <181, 14, 30, 16, 10, 0, 1, [1, 1, 0, 0, 0, 0, 0, 0]>, <182, 15, 31, 16, 10, 0, 1, [1, 1, 0, 0, 0, 0, 0, 0]>, <183, 16, 32, 16, 10, 0, 1, [1, 1, 0, 0, 0, 0, 0, 0]>, <184, 17, 33, 16, 10, 0, 1, [1, 1, 0, 0, 0, 0, 0, 0]>, <185, 18, 34, 16, 10, 0, 1, [1, 1, 0, 0, 0, 0, 0, 0]>, <186, 19, 35, 16, 10, 0, 1, [1, 1, 0, 0, 0, 0, 0, 0]>, <187, 3, 17, 14, 11, 1, 0, [1, 1, 0, 0, 0, 0, 0, 0]>, <188, 4, 18, 14, 11, 1, 0, [1, 1, 0, 0, 0, 0, 0, 0]>, <189, 5, 19, 14, 11, 1, 0, [1, 1, 0, 0, 0, 0, 0, 0]>, <190, 6, 20, 14, 11, 1, 0, [1, 1, 0, 0, 0, 0, 0, 0]>, <191, 12, 26, 14, 11, 1, 0, [1, 1, 0, 0, 0, 0, 0, 0]>, <192, 13, 27, 14, 11, 1, 0, [1, 1, 0, 0, 0, 0, 0, 0]>, <193, 14, 28, 14, 11, 1, 0, [1, 1, 0, 0, 0, 0, 0, 0]>, <194, 15, 29, 14, 11, 1, 0, [1, 1, 0, 0, 0, 0, 0, 0]>, <195, 17, 31, 14, 11, 1, 0, [1, 1, 0, 0, 0, 0, 0, 0]>, <196, 18, 32, 14, 11, 1, 0, [1, 1, 0, 0, 0, 0, 0, 0]>, <197, 19, 33, 14, 11, 1, 0, [1, 1, 0, 0, 0, 0, 0, 0]>, <198, 20, 34, 14, 11, 1, 0, [1, 1, 0, 0, 0, 0, 0, 0]>, <199, 21, 35, 14, 11, 1, 0, [1, 1, 0, 0, 0, 0, 0, 0]>, <200, 4, 17, 13, 12, 0, 1, [1, 0, 0, 0, 0, 0, 0, 1]>, <201, 5, 18, 13, 12, 0, 1, [1, 0, 0, 0, 0, 0, 0, 1]>, <202, 6, 19, 13, 12, 0, 1, [1, 0, 0, 0, 0, 0, 0, 1]>, <203, 13, 26, 13, 12, 0, 1, [1, 0, 0, 0, 0, 0, 0, 1]>, <204, 14, 27, 13, 12, 0, 1, [1, 0, 0, 0, 0, 0, 0, 1]>, <205, 15, 28, 13, 12, 0, 1, [1, 0, 0, 0, 0, 0, 0, 1]>, <206, 18, 31, 13, 12, 0, 1, [1, 0, 0, 0, 0, 0, 0, 1]>, <207, 19, 32, 13, 12, 0, 1, [1, 0, 0, 0, 0, 0, 0, 1]>, <208, 20, 33, 13, 12, 0, 1, [1, 0, 0, 0, 0, 0, 0, 1]>, <209, 21, 34, 13, 12, 0, 1, [1, 0, 0, 0, 0, 0, 0, 1]>, <210, 22, 35, 13, 12, 0, 1, [1, 0, 0, 0, 0, 0, 0, 1]>, <211, 3, 17, 14, 13, 1, 0, [0, 0, 0, 0, 1, 1, 0, 0]>, <212, 4, 18, 14, 13, 1, 0, [0, 0, 0, 0, 1, 1, 0, 0]>, <213, 5, 19, 14, 13, 1, 0, [0, 0, 0, 0, 1, 1, 0, 0]>, <214, 6, 20, 14, 13, 1, 0, [0, 0, 0, 0, 1, 1, 0, 0]>, <215, 12, 26, 14, 13, 1, 0, [0, 0, 0, 0, 1, 1, 0, 0]>, <216, 13, 27, 14, 13, 1, 0, [0, 0, 0, 0, 1, 1, 0, 0]>, <217, 14, 28, 14, 13, 1, 0, [0, 0, 0, 0, 1, 1, 0, 0]>, <218, 15, 29, 14, 13, 1, 0, [0, 0, 0, 0, 1, 1, 0, 0]>, <219, 17, 31, 14, 13, 1, 0, [0, 0, 0, 0, 1, 1, 0, 0]>, <220, 18, 32, 14, 13, 1, 0, [0, 0, 0, 0, 1, 1, 0, 0]>, <221, 19, 33, 14, 13, 1, 0, [0, 0, 0, 0, 1, 1, 0, 0]>, <222, 20, 34, 14, 13, 1, 0, [0, 0, 0, 0, 1, 1, 0, 0]>, <223, 21, 35, 14, 13, 1, 0, [0, 0, 0, 0, 1, 1, 0, 0]>, <224, 0, 18, 18, 14, 1, 0, [0, 1, 1, 0, 0, 0, 0, 0]>, <225, 1, 19, 18, 14, 1, 0, [0, 1, 1, 0, 0, 0, 0, 0]>, <226, 2, 20, 18, 14, 1, 0, [0, 1, 1, 0, 0, 0, 0, 0]>, <227, 3, 21, 18, 14, 1, 0, [0, 1, 1, 0, 0, 0, 0, 0]>, <228, 4, 22, 18, 14, 1, 0, [0, 1, 1, 0, 0, 0, 0, 0]>, <229, 5, 23, 18, 14, 1, 0, [0, 1, 1, 0, 0, 0, 0, 0]>, <230, 6, 24, 18, 14, 1, 0, [0, 1, 1, 0, 0, 0, 0, 0]>, <231, 8, 26, 18, 14, 1, 0, [0, 1, 1, 0, 0, 0, 0, 0]>, <232, 9, 27, 18, 14, 1, 0, [0, 1, 1, 0, 0, 0, 0, 0]>, <233, 10, 28, 18, 14, 1, 0, [0, 1, 1, 0, 0, 0, 0, 0]>, <234, 11, 29, 18, 14, 1, 0, [0, 1, 1, 0, 0, 0, 0, 0]>, <235, 12, 30, 18, 14, 1, 0, [0, 1, 1, 0, 0, 0, 0, 0]>, <236, 13, 31, 18, 14, 1, 0, [0, 1, 1, 0, 0, 0, 0, 0]>, <237, 14, 32, 18, 14, 1, 0, [0, 1, 1, 0, 0, 0, 0, 0]>, <238, 15, 33, 18, 14, 1, 0, [0, 1, 1, 0, 0, 0, 0, 0]>, <239, 16, 34, 18, 14, 1, 0, [0, 1, 1, 0, 0, 0, 0, 0]>, <240, 17, 35, 18, 14, 1, 0, [0, 1, 1, 0, 0, 0, 0, 0]>, <241, 4, 17, 13, 15, 0, 0, [0, 0, 1, 1, 0, 0, 0, 0]>, <242, 5, 18, 13, 15, 0, 0, [0, 0, 1, 1, 0, 0, 0, 0]>, <243, 6, 19, 13, 15, 0, 0, [0, 0, 1, 1, 0, 0, 0, 0]>, <244, 13, 26, 13, 15, 0, 0, [0, 0, 1, 1, 0, 0, 0, 0]>, <245, 14, 27, 13, 15, 0, 0, [0, 0, 1, 1, 0, 0, 0, 0]>, <246, 15, 28, 13, 15, 0, 0, [0, 0, 1, 1, 0, 0, 0, 0]>, <247, 18, 31, 13, 15, 0, 0, [0, 0, 1, 1, 0, 0, 0, 0]>, <248, 19, 32, 13, 15, 0, 0, [0, 0, 1, 1, 0, 0, 0, 0]>, <249, 20, 33, 13, 15, 0, 0, [0, 0, 1, 1, 0, 0, 0, 0]>, <250, 21, 34, 13, 15, 0, 0, [0, 0, 1, 1, 0, 0, 0, 0]>, <251, 22, 35, 13, 15, 0, 0, [0, 0, 1, 1, 0, 0, 0, 0]>, <252, 1, 17, 16, 16, 0, 0, [0, 0, 0, 0, 0, 0, 1, 1]>, <253, 2, 18, 16, 16, 0, 0, [0, 0, 0, 0, 0, 0, 1, 1]>, <254, 3, 19, 16, 16, 0, 0, [0, 0, 0, 0, 0, 0, 1, 1]>, <255, 4, 20, 16, 16, 0, 0, [0, 0, 0, 0, 0, 0, 1, 1]>, <256, 5, 21, 16, 16, 0, 0, [0, 0, 0, 0, 0, 0, 1, 1]>, <257, 6, 22, 16, 16, 0, 0, [0, 0, 0, 0, 0, 0, 1, 1]>, <258, 10, 26, 16, 16, 0, 0, [0, 0, 0, 0, 0, 0, 1, 1]>, <259, 11, 27, 16, 16, 0, 0, [0, 0, 0, 0, 0, 0, 1, 1]>, <260, 12, 28, 16, 16, 0, 0, [0, 0, 0, 0, 0, 0, 1, 1]>, <261, 13, 29, 16, 16, 0, 0, [0, 0, 0, 0, 0, 0, 1, 1]>, <262, 14, 30, 16, 16, 0, 0, [0, 0, 0, 0, 0, 0, 1, 1]>, <263, 15, 31, 16, 16, 0, 0, [0, 0, 0, 0, 0, 0, 1, 1]>, <264, 16, 32, 16, 16, 0, 0, [0, 0, 0, 0, 0, 0, 1, 1]>, <265, 17, 33, 16, 16, 0, 0, [0, 0, 0, 0, 0, 0, 1, 1]>, <266, 18, 34, 16, 16, 0, 0, [0, 0, 0, 0, 0, 0, 1, 1]>, <267, 19, 35, 16, 16, 0, 0, [0, 0, 0, 0, 0, 0, 1, 1]>, <268, 3, 17, 14, 17, 1, 0, [0, 0, 0, 0, 0, 1, 1, 0]>, <269, 4, 18, 14, 17, 1, 0, [0, 0, 0, 0, 0, 1, 1, 0]>, <270, 5, 19, 14, 17, 1, 0, [0, 0, 0, 0, 0, 1, 1, 0]>, <271, 6, 20, 14, 17, 1, 0, [0, 0, 0, 0, 0, 1, 1, 0]>, <272, 12, 26, 14, 17, 1, 0, [0, 0, 0, 0, 0, 1, 1, 0]>, <273, 13, 27, 14, 17, 1, 0, [0, 0, 0, 0, 0, 1, 1, 0]>, <274, 14, 28, 14, 17, 1, 0, [0, 0, 0, 0, 0, 1, 1, 0]>, <275, 15, 29, 14, 17, 1, 0, [0, 0, 0, 0, 0, 1, 1, 0]>, <276, 17, 31, 14, 17, 1, 0, [0, 0, 0, 0, 0, 1, 1, 0]>, <277, 18, 32, 14, 17, 1, 0, [0, 0, 0, 0, 0, 1, 1, 0]>, <278, 19, 33, 14, 17, 1, 0, [0, 0, 0, 0, 0, 1, 1, 0]>, <279, 20, 34, 14, 17, 1, 0, [0, 0, 0, 0, 0, 1, 1, 0]>, <280, 21, 35, 14, 17, 1, 0, [0, 0, 0, 0, 0, 1, 1, 0]>, <281, 3, 17, 14, 18, 0, 1, [0, 0, 1, 1, 0, 0, 0, 0]>, <282, 4, 18, 14, 18, 0, 1, [0, 0, 1, 1, 0, 0, 0, 0]>, <283, 5, 19, 14, 18, 0, 1, [0, 0, 1, 1, 0, 0, 0, 0]>, <284, 6, 20, 14, 18, 0, 1, [0, 0, 1, 1, 0, 0, 0, 0]>, <285, 12, 26, 14, 18, 0, 1, [0, 0, 1, 1, 0, 0, 0, 0]>, <286, 13, 27, 14, 18, 0, 1, [0, 0, 1, 1, 0, 0, 0, 0]>, <287, 14, 28, 14, 18, 0, 1, [0, 0, 1, 1, 0, 0, 0, 0]>, <288, 15, 29, 14, 18, 0, 1, [0, 0, 1, 1, 0, 0, 0, 0]>, <289, 17, 31, 14, 18, 0, 1, [0, 0, 1, 1, 0, 0, 0, 0]>, <290, 18, 32, 14, 18, 0, 1, [0, 0, 1, 1, 0, 0, 0, 0]>, <291, 19, 33, 14, 18, 0, 1, [0, 0, 1, 1, 0, 0, 0, 0]>, <292, 20, 34, 14, 18, 0, 1, [0, 0, 1, 1, 0, 0, 0, 0]>, <293, 21, 35, 14, 18, 0, 1, [0, 0, 1, 1, 0, 0, 0, 0]>, <294, 4, 17, 13, 19, 0, 1, [0, 0, 1, 1, 0, 0, 0, 0]>, <295, 5, 18, 13, 19, 0, 1, [0, 0, 1, 1, 0, 0, 0, 0]>, <296, 6, 19, 13, 19, 0, 1, [0, 0, 1, 1, 0, 0, 0, 0]>, <297, 13, 26, 13, 19, 0, 1, [0, 0, 1, 1, 0, 0, 0, 0]>, <298, 14, 27, 13, 19, 0, 1, [0, 0, 1, 1, 0, 0, 0, 0]>, <299, 15, 28, 13, 19, 0, 1, [0, 0, 1, 1, 0, 0, 0, 0]>, <300, 18, 31, 13, 19, 0, 1, [0, 0, 1, 1, 0, 0, 0, 0]>, <301, 19, 32, 13, 19, 0, 1, [0, 0, 1, 1, 0, 0, 0, 0]>, <302, 20, 33, 13, 19, 0, 1, [0, 0, 1, 1, 0, 0, 0, 0]>, <303, 21, 34, 13, 19, 0, 1, [0, 0, 1, 1, 0, 0, 0, 0]>, <304, 22, 35, 13, 19, 0, 1, [0, 0, 1, 1, 0, 0, 0, 0]>, <305, 1, 17, 16, 20, 0, 0, [1, 1, 0, 0, 0, 0, 0, 0]>, <306, 2, 18, 16, 20, 0, 0, [1, 1, 0, 0, 0, 0, 0, 0]>, <307, 3, 19, 16, 20, 0, 0, [1, 1, 0, 0, 0, 0, 0, 0]>, <308, 4, 20, 16, 20, 0, 0, [1, 1, 0, 0, 0, 0, 0, 0]>, <309, 5, 21, 16, 20, 0, 0, [1, 1, 0, 0, 0, 0, 0, 0]>, <310, 6, 22, 16, 20, 0, 0, [1, 1, 0, 0, 0, 0, 0, 0]>, <311, 10, 26, 16, 20, 0, 0, [1, 1, 0, 0, 0, 0, 0, 0]>, <312, 11, 27, 16, 20, 0, 0, [1, 1, 0, 0, 0, 0, 0, 0]>, <313, 12, 28, 16, 20, 0, 0, [1, 1, 0, 0, 0, 0, 0, 0]>, <314, 13, 29, 16, 20, 0, 0, [1, 1, 0, 0, 0, 0, 0, 0]>, <315, 14, 30, 16, 20, 0, 0, [1, 1, 0, 0, 0, 0, 0, 0]>, <316, 15, 31, 16, 20, 0, 0, [1, 1, 0, 0, 0, 0, 0, 0]>, <317, 16, 32, 16, 20, 0, 0, [1, 1, 0, 0, 0, 0, 0, 0]>, <318, 17, 33, 16, 20, 0, 0, [1, 1, 0, 0, 0, 0, 0, 0]>, <319, 18, 34, 16, 20, 0, 0, [1, 1, 0, 0, 0, 0, 0, 0]>, <320, 19, 35, 16, 20, 0, 0, [1, 1, 0, 0, 0, 0, 0, 0]>, <321, 0, 17, 17, 21, 0, 1, [1, 0, 0, 0, 0, 0, 0, 1]>, <322, 1, 18, 17, 21, 0, 1, [1, 0, 0, 0, 0, 0, 0, 1]>, <323, 2, 19, 17, 21, 0, 1, [1, 0, 0, 0, 0, 0, 0, 1]>, <324, 3, 20, 17, 21, 0, 1, [1, 0, 0, 0, 0, 0, 0, 1]>, <325, 4, 21, 17, 21, 0, 1, [1, 0, 0, 0, 0, 0, 0, 1]>, <326, 5, 22, 17, 21, 0, 1, [1, 0, 0, 0, 0, 0, 0, 1]>, <327, 6, 23, 17, 21, 0, 1, [1, 0, 0, 0, 0, 0, 0, 1]>, <328, 9, 26, 17, 21, 0, 1, [1, 0, 0, 0, 0, 0, 0, 1]>, <329, 10, 27, 17, 21, 0, 1, [1, 0, 0, 0, 0, 0, 0, 1]>, <330, 11, 28, 17, 21, 0, 1, [1, 0, 0, 0, 0, 0, 0, 1]>, <331, 12, 29, 17, 21, 0, 1, [1, 0, 0, 0, 0, 0, 0, 1]>, <332, 13, 30, 17, 21, 0, 1, [1, 0, 0, 0, 0, 0, 0, 1]>, <333, 14, 31, 17, 21, 0, 1, [1, 0, 0, 0, 0, 0, 0, 1]>, <334, 15, 32, 17, 21, 0, 1, [1, 0, 0, 0, 0, 0, 0, 1]>, <335, 16, 33, 17, 21, 0, 1, [1, 0, 0, 0, 0, 0, 0, 1]>, <336, 17, 34, 17, 21, 0, 1, [1, 0, 0, 0, 0, 0, 0, 1]>, <337, 18, 35, 17, 21, 0, 1, [1, 0, 0, 0, 0, 0, 0, 1]>};
